[[8, 41, 19, 3, 18, 31, 17, 21, 42, 7, 2, 30, 23, 20, 50, 16, 29, 47, 26, 27, 13, 14, 52], [28, 12, 11, 51, 33, 43, 4, 6, 15, 5, 24, 48, 25, 46, 37, 38, 40, 39, 36, 35, 34, 44, 49, 22, 32, 45, 10, 9]]